p cnf 17 23
10 -14 0
8 -15 12 0
6 7 0
-16 7 0
9 10 0
4 14 0
-6 5 0
-13 -12 0
12 6 -17 0
14 15 0
1 -6 0
3 -2 0
-16 13 0
2 12 -11 0
-4 -3 -1 0
-14 13 0
2 4 0
1 -2 0
-7 -5 -1 0
-8 -10 0
11 13 0
8 2 -9 0
16 17 0